NAME : global
TYPE : ATSP
DIMENSION : 11
EDGE_WEIGHT_TYPE : EXPLICIT
EDGE_WEIGHT_FORMAT : FULL_MATRIX
EDGE_WEIGHT_SECTION
0 1946 3492 4013 3120 3489 5002 5876 5557 4917 4314 
0 0 2115 2857 2372 2405 3908 4677 4831 4316 4285 
0 2115 0 2185 3767 2288 2536 2622 4483 4908 5663 
0 2857 2185 0 5109 4302 4662 4055 6633 6768 7106 
0 2372 3767 5109 0 2213 4163 5734 3713 2305 2070 
0 2405 2288 4302 2213 0 1974 3643 2467 2650 3730 
0 3908 2536 4662 4163 1974 0 2087 2531 3947 5504 
0 4677 2622 4055 5734 3643 2087 0 4589 5961 7366 
0 4831 4483 6633 3713 2467 2531 4589 0 2134 4082 
0 4316 4908 6768 2305 2650 3947 5961 2134 0 2091 
0 4285 5663 7106 2070 3730 5504 7366 4082 2091 0 
EOF